
List of user-set options:

                                    Name   Value                used
                           compl_inf_tol = 1                     yes
                         constr_viol_tol = 1                     yes
                            dual_inf_tol = 1000                  yes
                           linear_solver = ma97                  yes
                              ma86_small = 1e-30                  no
                                  ma86_u = 0.0001                 no
                              ma97_order = best                  yes
                              ma97_small = 1e-30                 yes
                            ma97_switch1 = at_start              yes
                            ma97_switch2 = od_hd_reuse           yes
                                  ma97_u = 1e-06                 yes
                               ma97_umax = 0.5                   yes
                                max_iter = 1000                  yes
                    max_refinement_steps = 20                    yes
                    min_refinement_steps = 5                     yes
                                 mu_init = 1e-06                 yes
           mu_superlinear_decrease_power = 1.25                  yes
                   nlp_scaling_min_value = 1e-08                 yes
                        option_file_name = Preset_Case_223_pf.opt  yes
                             output_file = ./tmp/Preset_Case_223_pf.output  yes
                      print_user_options = yes                   yes
        required_infeasibility_reduction = 1                      no
                                     tol = 1e-08                 yes
                   warm_start_bound_frac = 1e-20                 yes
                   warm_start_bound_push = 1e-20                 yes
                   warm_start_init_point = yes                   yes
              warm_start_mult_bound_push = 1e-20                 yes
                warm_start_mult_init_max = 1e+40                 yes
             warm_start_slack_bound_frac = 1e-20                 yes
             warm_start_slack_bound_push = 1e-20                 yes

******************************************************************************
This program contains Ipopt, a library for large-scale nonlinear optimization.
 Ipopt is released as open source code under the Eclipse Public License (EPL).
         For more information visit http://projects.coin-or.org/Ipopt
******************************************************************************

This is Ipopt version 3.12.10, running with linear solver ma97.

Number of nonzeros in equality constraint Jacobian...:   123442
Number of nonzeros in inequality constraint Jacobian.:      213
Number of nonzeros in Lagrangian Hessian.............:    49069

Total number of variables............................:    31591
                     variables with only lower bounds:    12912
                variables with lower and upper bounds:    15130
                     variables with only upper bounds:        0
Total number of equality constraints.................:    31483
Total number of inequality constraints...............:       25
        inequality constraints with only lower bounds:        4
   inequality constraints with lower and upper bounds:        0
        inequality constraints with only upper bounds:       21

iter    objective    inf_pr   inf_du lg(mu)  ||d||  lg(rg) alpha_du alpha_pr  ls
   0 -5.1978051e+00 4.06e-03 1.02e+00  -6.0 0.00e+00    -  0.00e+00 0.00e+00   0
   1 -5.1973506e+00 9.12e+00 3.34e+01  -6.0 2.72e+05    -  1.26e-04 1.71e-03h  1
   2 -5.1973111e+00 9.12e+00 3.34e+01  -6.0 2.22e+03    -  1.18e-04 3.37e-05h  1
   3 -5.1972232e+00 9.12e+00 3.45e+01  -6.0 1.78e+04    -  8.95e-05 3.31e-05h  7
   4 -5.1971821e+00 9.12e+00 4.01e+01  -6.0 3.05e+03    -  7.51e-02 3.66e-05h  7
   5 -5.1971792e+00 9.12e+00 4.52e+01  -6.0 1.83e+05    -  2.10e-04 1.07e-06h  8
   6 -5.1965337e+00 9.11e+00 4.52e+01  -6.0 1.78e+04    -  2.43e-04 2.43e-04s 12
   7r-5.1965337e+00 9.11e+00 9.99e+02   1.0 0.00e+00    -  0.00e+00 0.00e+00R  1
   8r-5.2006468e+00 9.11e+00 2.38e+03   1.0 2.83e+06    -  1.13e-07 1.33e-08f  1
   9 -5.2006181e+00 9.11e+00 1.26e+03  -6.0 5.26e+02    -  8.02e-04 2.19e-05h  1
iter    objective    inf_pr   inf_du lg(mu)  ||d||  lg(rg) alpha_du alpha_pr  ls
  10 -5.1993181e+00 9.11e+00 3.73e+04  -6.0 6.98e+02    -  2.29e-05 6.61e-04h  1
  11 -5.1987020e+00 9.10e+00 3.73e+04  -6.0 3.58e+02    -  5.98e-04 3.63e-04h  1
  12 -5.1974806e+00 9.10e+00 3.73e+04  -6.0 3.69e+02    -  4.42e-04 7.38e-04h  1
  13 -5.1894960e+00 9.06e+00 3.71e+04  -6.0 3.64e+02    -  2.36e-04 4.51e-03h  2
  14 -5.1893180e+00 9.06e+00 3.71e+04  -6.0 3.62e+02    -  3.83e-04 9.64e-05h  7
  15 -5.1892579e+00 9.06e+00 3.71e+04  -6.0 3.55e+02    -  8.88e-05 3.07e-05h  9
  16 -5.1892179e+00 9.06e+00 3.71e+04  -6.0 3.20e+02    -  4.30e-03 1.67e-05h 10
  17r-5.1892179e+00 9.06e+00 9.99e+02   1.0 0.00e+00    -  0.00e+00 2.64e-07R 18
  18r-5.1876767e+00 9.06e+00 7.27e+04   1.0 7.72e+04    -  6.75e-08 2.12e-08f  1
  19 -5.1876533e+00 9.06e+00 1.82e+05  -6.0 3.72e+02    -  2.31e-03 1.31e-05h  1
iter    objective    inf_pr   inf_du lg(mu)  ||d||  lg(rg) alpha_du alpha_pr  ls
  20 -5.1811001e+00 9.03e+00 4.16e+07  -6.0 3.54e+02    -  1.44e-05 3.26e-03h  1
  21 -5.1722963e+00 8.99e+00 4.14e+07  -6.0 3.40e+02    -  2.18e-03 4.02e-03h  1
  22 -5.1379171e+00 8.86e+00 4.08e+07  -6.0 3.26e+02    -  8.80e-03 1.46e-02h  1
  23 -5.0593032e+00 8.56e+00 3.94e+07  -6.0 3.23e+02    -  2.38e-02 3.39e-02h  1
  24 -4.9743076e+00 8.24e+00 3.80e+07  -6.0 3.14e+02    -  6.38e-02 3.73e-02h  1
  25 -4.8646600e+00 7.85e+00 3.62e+07  -6.0 3.00e+02    -  6.84e-02 4.76e-02h  1
  26 -4.7884223e+00 7.59e+00 3.50e+07  -6.0 2.86e+02    -  1.50e-01 3.35e-02h  1
  27 -4.4948065e+00 6.66e+00 3.06e+07  -6.0 2.69e+02    -  1.52e-02 1.24e-01h  1
  28 -4.3541026e+00 6.17e+00 2.84e+07  -6.0 2.65e+02    -  9.22e-03 7.39e-02h  1
  29 -3.4287915e+00 2.92e+00 1.26e+07  -6.0 2.63e+02    -  5.03e-02 5.57e-01h  1
iter    objective    inf_pr   inf_du lg(mu)  ||d||  lg(rg) alpha_du alpha_pr  ls
  30 -3.3981736e+00 2.14e+00 9.18e+06  -6.0 2.04e+02    -  1.13e-01 2.70e-01h  1
  31 -3.4926069e+00 1.13e+00 3.93e+06  -6.0 1.43e+02    -  1.79e-01 5.72e-01h  1
  32 -3.5410028e+00 9.82e-01 3.39e+06  -6.0 1.81e+01    -  6.68e-01 1.36e-01h  1
  33 -4.1041599e+00 5.90e+00 1.84e+06  -6.0 9.39e+01    -  1.01e-06 4.58e-01h  1
  34 -4.1859254e+00 4.85e+00 1.52e+06  -6.0 3.43e+01    -  8.11e-02 1.73e-01h  1
  35 -4.3724254e+00 3.68e+00 1.13e+06  -6.0 3.67e+01    -  3.07e-01 2.54e-01h  1
  36 -4.8652799e+00 1.54e+00 5.19e+05  -6.0 4.03e+01    -  2.22e-01 5.43e-01h  1
  37 -4.8832473e+00 1.51e+00 5.09e+05  -6.0 4.92e+01    -  1.92e-01 1.86e-02h  1
  38 -5.0984690e+00 1.12e+00 3.81e+05  -6.0 4.98e+01    -  9.01e-02 2.50e-01h  1
  39 -5.1097994e+00 1.05e+00 3.86e+05  -6.0 6.54e+01    -  2.52e-03 6.77e-02h  1
iter    objective    inf_pr   inf_du lg(mu)  ||d||  lg(rg) alpha_du alpha_pr  ls
  40 -5.1269718e+00 1.02e+00 3.91e+05  -6.0 4.61e+01    -  4.68e-02 2.65e-02h  1
  41 -5.1911764e+00 8.65e-01 1.64e+06  -6.0 6.16e+01    -  4.74e-01 1.75e-01h  1
  42 -5.2974273e+00 6.76e-01 1.65e+07  -6.0 1.09e+02    -  1.62e-01 2.56e-01h  1
  43 -5.3892067e+00 5.73e-01 5.74e+06  -6.0 1.06e+02    -  1.35e-01 1.70e-01h  1
  44 -5.3878675e+00 5.25e-01 1.90e+06  -6.0 7.13e+01    -  1.61e-01 8.71e-02h  1
  45 -5.3893239e+00 4.27e-01 1.14e+07  -6.0 5.68e+01    -  6.55e-02 1.89e-01h  1
  46 -5.3854453e+00 3.91e-01 1.04e+07  -6.0 5.78e+01    -  2.59e-02 8.75e-02h  1
  47 -5.3781271e+00 3.47e-01 9.07e+06  -6.0 6.26e+01    -  1.90e-02 1.14e-01h  1
  48 -5.3869866e+00 2.33e-01 5.63e+06  -6.0 8.85e+01    -  2.84e-02 3.32e-01h  1
  49 -5.4306559e+00 2.24e-01 6.53e+06  -6.0 1.19e+02    -  1.21e-01 9.09e-01h  1
iter    objective    inf_pr   inf_du lg(mu)  ||d||  lg(rg) alpha_du alpha_pr  ls
  50 -5.4389165e+00 1.94e-01 5.34e+06  -6.0 5.04e+01    -  5.68e-01 1.36e-01h  1
  51 -5.4871339e+00 3.33e-01 2.20e+06  -6.0 1.09e+02    -  1.45e-01 5.43e-01h  1
  52 -5.5396985e+00 1.06e+00 2.82e+05  -6.0 9.64e+01    -  8.05e-01 1.00e+00f  1
  53 -5.5603063e+00 4.44e-01 7.96e+04  -6.0 2.31e+02    -  7.54e-01 5.99e-01h  1
  54 -5.5765944e+00 4.40e-01 5.12e+04  -6.0 4.39e+02    -  4.39e-01 3.58e-01h  1
  55 -5.6167153e+00 6.38e+00 1.21e+05  -6.0 7.26e+02    -  2.24e-01 1.00e+00h  1
  56 -5.6253876e+00 4.87e+00 3.68e+04  -6.0 7.00e+02    -  4.33e-01 3.72e-01h  1
  57 -5.6266639e+00 4.75e+00 4.32e+05  -6.0 1.17e+03    -  2.51e-01 2.49e-02h  1
  58 -5.6267273e+00 4.75e+00 1.19e+04  -6.0 1.51e+03    -  2.09e-01 1.19e-03h  1
  59 -5.6522991e+00 6.16e+00 5.54e+08  -6.0 3.21e+03    -  2.03e-04 2.11e-01h  1
iter    objective    inf_pr   inf_du lg(mu)  ||d||  lg(rg) alpha_du alpha_pr  ls
  60 -5.6534356e+00 6.07e+00 5.45e+08  -6.0 2.07e+03    -  5.02e-03 1.71e-02h  1
  61 -5.6556097e+00 6.01e+00 5.39e+08  -6.0 1.83e+03    -  8.21e-03 1.07e-02h  1
  62 -5.6986916e+00 1.93e+01 2.11e+08  -6.0 1.89e+03    -  2.60e-02 6.09e-01h  1
  63 -5.6977385e+00 1.71e+01 1.83e+08  -6.0 1.20e+03    -  3.64e-01 1.30e-01h  1
  64 -5.6979752e+00 1.55e+01 1.57e+08  -6.0 1.71e+03    -  4.13e-01 1.43e-01h  1
  65 -5.7011328e+00 2.30e+01 6.85e+07  -6.0 1.93e+03    -  5.43e-01 5.64e-01h  1
  66 -5.7021175e+00 2.14e+01 6.33e+07  -6.0 1.88e+03    -  2.34e-01 7.61e-02h  1
  67 -5.7053428e+00 2.03e+01 4.15e+07  -6.0 2.31e+03    -  6.65e-01 3.44e-01h  1
  68 -5.7132909e+00 3.71e+01 2.85e+07  -6.0 3.33e+03    -  4.47e-01 3.15e-01h  1
  69 -5.7123488e+00 3.52e+01 2.70e+07  -6.0 9.06e+01  -4.0 3.10e-05 5.12e-02h  1
iter    objective    inf_pr   inf_du lg(mu)  ||d||  lg(rg) alpha_du alpha_pr  ls
  70 -5.7067651e+00 2.67e+01 2.05e+07  -6.0 5.17e+01  -4.5 7.42e-03 2.41e-01h  1
  71 -5.7109292e+00 1.54e+01 1.18e+07  -6.0 1.06e+01  -5.0 5.19e-01 4.24e-01h  1
  72 -5.7105204e+00 3.17e-02 5.57e+04  -6.0 2.41e+01  -5.4 9.42e-05 1.00e+00h  1
  73 -5.7172958e+00 7.38e-02 4.63e+02  -6.0 4.12e+01  -5.9 9.96e-01 1.00e+00h  1
  74 -5.7249030e+00 1.98e-01 1.52e+01  -6.0 6.75e+01  -6.4 7.17e-01 1.00e+00h  1
  75 -5.7310264e+00 2.44e-01 1.06e+01  -6.0 1.83e+02  -6.9 9.72e-01 4.84e-01h  1
  76 -5.7425665e+00 1.23e+00 1.03e+02  -6.0 1.60e+03  -7.3 2.01e-01 1.18e-01h  1
  77 -5.7469895e+00 8.53e-01 2.51e+05  -6.0 1.14e+02  -7.8 1.00e+00 3.17e-01h  1
  78 -5.7635905e+00 1.04e+00 9.30e+04  -6.0 2.82e+02  -8.3 5.31e-01 5.75e-01h  1
  79 -5.7708166e+00 9.23e-01 1.98e+05  -6.0 6.39e+02  -8.8 3.30e-01 2.23e-01h  1
iter    objective    inf_pr   inf_du lg(mu)  ||d||  lg(rg) alpha_du alpha_pr  ls
  80 -5.7821830e+00 3.75e+00 5.71e+04  -6.0 1.36e+03  -9.2 2.51e-01 2.97e-01h  1
  81r-5.7821830e+00 3.75e+00 1.00e+03   0.5 0.00e+00  -9.7 0.00e+00 1.42e-07R  2
  82r-5.8056057e+00 3.75e+00 1.00e+03   0.5 3.74e+04    -  2.41e-06 6.29e-07f  1
  83 -5.8049971e+00 3.65e+00 1.69e+04  -6.0 7.80e+01    -  4.05e-01 2.53e-02h  1
  84 -5.8047272e+00 3.61e+00 5.86e+03  -6.0 5.71e+01    -  2.89e-02 1.15e-02h  1
  85 -5.7933940e+00 1.86e+00 3.02e+03  -6.0 5.57e+01    -  3.36e-01 4.84e-01h  1
  86 -5.7874376e+00 9.93e-01 1.61e+03  -6.0 2.52e+01    -  5.62e-01 4.67e-01h  1
  87 -5.7808341e+00 1.44e-02 1.10e+01  -6.0 1.51e+01    -  9.03e-01 1.00e+00h  1
  88 -5.7818794e+00 9.99e-04 4.72e+00  -6.0 3.72e+00    -  9.06e-01 1.00e+00h  1
  89 -5.7834146e+00 7.38e-02 9.11e-01  -6.0 2.55e+01    -  8.09e-01 1.00e+00h  1
iter    objective    inf_pr   inf_du lg(mu)  ||d||  lg(rg) alpha_du alpha_pr  ls
  90 -5.7862863e+00 3.04e-01 1.01e+00  -6.0 4.45e+01    -  9.23e-01 1.00e+00h  1
  91 -5.7892071e+00 4.92e-01 2.40e+01  -6.0 2.29e+03    -  8.92e-02 1.75e-02h  1
  92 -5.7955246e+00 6.34e-01 8.07e+00  -6.0 2.99e+02    -  8.46e-01 5.88e-01h  1
  93 -5.7970948e+00 5.70e-01 2.92e+03  -6.0 7.73e+02    -  6.53e-02 1.33e-01h  1
  94 -5.7964992e+00 1.50e+00 1.16e+04  -6.0 8.09e+02    -  1.93e-01 1.00e+00H  1
  95 -5.7967370e+00 1.55e+00 9.99e+03  -6.0 1.05e+03    -  7.19e-01 1.38e-01h  2
  96 -5.7968792e+00 1.66e+00 9.54e+03  -6.0 4.43e+03    -  5.67e-02 4.54e-02h  4
  97 -5.7969509e+00 2.14e+00 9.32e+03  -6.0 7.07e+03 -10.2 1.86e-01 2.30e-02h  5
  98 -5.7970866e+00 2.49e+00 8.60e+03  -6.0 2.00e+03  -9.8 1.38e-01 7.78e-02h  4
  99 -5.7977875e+00 1.36e+02 8.30e+03  -6.0 7.19e+04 -10.3 1.48e-02 3.45e-02h  1
iter    objective    inf_pr   inf_du lg(mu)  ||d||  lg(rg) alpha_du alpha_pr  ls
 100 -5.7979898e+00 1.03e+02 6.79e+04  -6.0 1.41e+03  -8.9 3.11e-04 2.51e-01h  1
 101 -5.7980906e+00 1.01e+02 6.67e+04  -6.0 4.63e+03    -  8.30e-05 1.87e-02h  1
 102 -5.7981000e+00 1.01e+02 6.64e+04  -6.0 9.08e+03    -  4.37e-05 4.17e-03h  1
 103 -5.7981020e+00 1.01e+02 6.64e+04  -6.0 4.12e+05    -  8.90e-09 2.69e-05f  2
 104 -5.7981923e+00 5.28e+01 3.46e+04  -6.0 2.26e+02  -8.5 5.16e-01 4.79e-01h  1
 105 -5.7986306e+00 7.31e+01 3.19e+04  -6.0 2.30e+04    -  6.52e-02 7.89e-02h  1
 106 -5.7986526e+00 7.21e+01 3.14e+04  -6.0 3.91e+03    -  1.52e-01 1.51e-02h  1
 107 -5.7988207e+00 7.10e+01 3.37e+04  -6.0 7.48e+03    -  1.45e-01 4.69e-02h  1
 108 -5.7989902e+00 6.93e+01 1.13e+05  -6.0 6.21e+03    -  1.24e-02 5.50e-02h  1
 109 -5.7989994e+00 6.91e+01 1.13e+05  -6.0 5.50e+03  -9.0 7.12e-05 3.05e-03h  1
iter    objective    inf_pr   inf_du lg(mu)  ||d||  lg(rg) alpha_du alpha_pr  ls
 110 -5.7993788e+00 4.71e+01 2.10e+05  -6.0 1.97e+02  -8.5 3.48e-03 3.19e-01f  1
 111 -5.7994191e+00 4.59e+01 2.01e+05  -6.0 2.96e+03    -  2.12e-01 2.45e-02h  1
 112 -5.8000697e+00 5.14e+01 1.49e+05  -6.0 3.69e+03    -  3.09e-02 2.65e-01h  1
 113 -5.7998501e+00 5.50e+01 1.07e+05  -6.0 3.61e+03    -  4.58e-02 2.83e-01h  1
 114 -5.7998466e+00 5.42e+01 1.05e+05  -6.0 5.45e+00  -5.4 9.68e-03 1.58e-02h  1
 115 -5.7996561e+00 4.76e+01 9.15e+04  -6.0 1.53e+01  -5.9 3.19e-01 1.21e-01h  1
 116 -5.7996465e+00 3.83e+01 7.37e+04  -6.0 5.58e+00  -5.5 1.55e-01 1.95e-01h  1
 117 -5.7991233e+00 2.47e-02 7.86e+02  -6.0 1.63e+00  -5.9 7.80e-01 1.00e+00h  1
 118 -5.7992606e+00 1.94e+00 5.29e+02  -6.0 2.16e+03    -  8.08e-01 1.48e-01h  1
 119 -5.7993144e+00 2.67e+00 5.21e+02  -6.0 1.08e+03    -  6.51e-05 1.59e-02H  1
iter    objective    inf_pr   inf_du lg(mu)  ||d||  lg(rg) alpha_du alpha_pr  ls
 120 -5.7994232e+00 7.87e+00 7.38e+01  -6.0 7.26e+02    -  5.29e-01 8.85e-01h  1
 121 -5.7994322e+00 7.34e+00 5.57e+01  -6.0 8.68e+02    -  7.13e-01 7.78e-02h  1
 122 -5.7993884e+00 1.48e+00 7.08e+00  -6.0 2.87e+02    -  4.81e-01 1.00e+00h  1
 123 -5.7994764e+00 3.19e+00 1.17e+01  -6.0 8.42e+02    -  1.00e+00 4.22e-01h  1
 124 -5.7994800e+00 3.16e+00 1.13e+01  -6.0 3.17e+02    -  4.56e-05 7.51e-03H  1
 125 -5.7994833e+00 3.13e+00 1.85e+01  -6.0 1.50e+03    -  2.49e-01 1.06e-02h  1
 126 -5.7995894e+00 5.15e+00 4.94e+00  -6.0 5.34e+02    -  1.68e-03 1.00e+00f  1
 127 -5.7995795e+00 3.81e-04 1.18e+00  -6.0 5.14e-01  -6.4 8.94e-01 1.00e+00h  1
 128 -5.7998431e+00 4.22e+01 1.14e+01  -6.0 3.52e+03    -  5.08e-01 4.36e-01h  1
 129 -5.7999509e+00 5.72e+01 9.41e+01  -6.0 3.23e+03    -  3.91e-02 4.49e-01h  1
iter    objective    inf_pr   inf_du lg(mu)  ||d||  lg(rg) alpha_du alpha_pr  ls
 130 -5.7996871e+00 3.23e+01 9.95e+03  -6.0 4.30e+03    -  4.83e-01 1.00e+00H  1
 131 -5.7997513e+00 3.86e+01 4.31e+03  -6.0 1.19e+04    -  1.31e-01 5.78e-02h  2
 132 -5.7997957e+00 4.84e+01 6.19e+03  -6.0 2.49e+03    -  9.62e-01 4.43e-01H  1
 133 -5.7997703e+00 4.71e+01 5.49e+03  -6.0 4.88e+03    -  1.66e-01 1.00e-01h  2
 134 -5.7997456e+00 4.31e+01 1.70e+04  -6.0 2.57e+03    -  3.05e-01 1.10e-01h  1
 135 -5.7997098e+00 7.16e+00 7.02e+02  -6.0 6.57e+02    -  1.52e-02 1.00e+00h  1
 136 -5.7997093e+00 8.08e-04 2.10e+01  -6.0 5.17e+00  -6.9 8.26e-01 1.00e+00h  1
 137 -5.7997499e+00 3.09e+00 1.81e+00  -6.0 4.53e+02    -  8.73e-01 1.00e+00h  1
 138 -5.7997417e+00 1.99e-04 6.56e-04  -6.0 6.69e+00    -  1.00e+00 1.00e+00h  1
 139 -5.7997417e+00 6.73e-06 2.21e-06  -6.0 6.61e-01    -  1.00e+00 1.00e+00h  1
iter    objective    inf_pr   inf_du lg(mu)  ||d||  lg(rg) alpha_du alpha_pr  ls
 140 -5.7999259e+00 4.84e+00 8.35e+01  -7.5 7.64e+02    -  4.47e-01 7.35e-01h  1
 141 -5.7999172e+00 1.59e+00 2.38e+00  -7.5 2.55e+02    -  8.97e-01 8.17e-01h  1
 142 -5.7999064e+00 6.49e-02 6.46e-02  -7.5 6.23e+01    -  1.00e+00 1.00e+00h  1
 143 -5.7999059e+00 1.31e-05 3.79e-06  -7.5 9.73e-01    -  1.00e+00 1.00e+00h  1
 144 -5.7999059e+00 2.92e-10 1.74e-11  -7.5 1.39e-04    -  1.00e+00 1.00e+00h  1
 145 -5.7999076e+00 8.72e-03 9.47e-01  -9.0 2.83e+01    -  9.29e-01 8.26e-01h  1
 146 -5.7999078e+00 3.99e-04 3.03e-01  -9.0 4.99e+00    -  9.34e-01 1.00e+00h  1
 147 -5.7999078e+00 4.55e-10 4.13e-09  -9.0 5.79e-03    -  1.00e+00 1.00e+00h  1

Number of Iterations....: 147

                                   (scaled)                 (unscaled)
Objective...............:  -4.5311779573457098e+00   -5.7999077854025085e+00
Dual infeasibility......:   4.1326327679026593e-09    5.2897699429154040e-09
Constraint violation....:   3.7371804777595838e-10    4.5474735088646407e-10
Complementarity.........:   1.2909733851485335e-09    1.6524459329901230e-09
Overall NLP error.......:   4.1326327679026593e-09    5.2897699429154040e-09


Number of objective function evaluations             = 258
Number of objective gradient evaluations             = 148
Number of equality constraint evaluations            = 258
Number of inequality constraint evaluations          = 258
Number of equality constraint Jacobian evaluations   = 151
Number of inequality constraint Jacobian evaluations = 151
Number of Lagrangian Hessian evaluations             = 147
Total CPU secs in IPOPT (w/o function evaluations)   =    347.092
Total CPU secs in NLP function evaluations           =      9.663

EXIT: Optimal Solution Found.
